NAME /Users/henri/Research/solvers/instances/idol-instances/robust/collection/cbp_Subramanyam_et_al_2020/CapBud_N5_10/models/uncertain_technology_matrix/
ROWS
 N  OBJ
 L  capacity
 L  c_215
 L  c_216
 L  c_217
 L  c_218
 L  c_219
COLUMNS
    MARKER    'MARKER'                 'INTORG'
    x_0        OBJ        1.2106
    x_0        c_215      1
    x_0        capacity   0.24212
    x_1        OBJ        2.41546
    x_1        c_216      1
    x_1        capacity   0.483091
    x_2        OBJ        2.28264
    x_2        c_217      1
    x_2        capacity   0.456527
    x_3        OBJ        4.89509
    x_3        c_218      1
    x_3        capacity   0.979019
    x_4        OBJ        8.91523
    x_4        c_219      1
    x_4        capacity   1.78305
    y_0        OBJ        0.968479
    y_0        c_215      1
    y_0        capacity   0.24212
    y_1        OBJ        1.93237
    y_1        c_216      1
    y_1        capacity   0.483091
    y_2        OBJ        1.82611
    y_2        c_217      1
    y_2        capacity   0.456527
    y_3        OBJ        3.91607
    y_3        c_218      1
    y_3        capacity   0.979019
    y_4        OBJ        7.13218
    y_4        c_219      1
    y_4        capacity   1.78305
    MARKER    'MARKER'                 'INTEND'
RHS
    RHS       capacity   9.85951
    RHS       c_215      1
    RHS       c_216      1
    RHS       c_217      1
    RHS       c_218      1
    RHS       c_219      1
BOUNDS
 LI BND       x_0        0
 UI BND       x_0        1
 LI BND       x_1        0
 UI BND       x_1        1
 LI BND       x_2        0
 UI BND       x_2        1
 LI BND       x_3        0
 UI BND       x_3        1
 LI BND       x_4        0
 UI BND       x_4        1
 LI BND       y_0        0
 UI BND       y_0        1
 LI BND       y_1        0
 UI BND       y_1        1
 LI BND       y_2        0
 UI BND       y_2        1
 LI BND       y_3        0
 UI BND       y_3        1
 LI BND       y_4        0
 UI BND       y_4        1
ENDATA
